
















































































43 45 9 
71 36 
42 25 
34 58 
48 6 
67 11 

28 40 
54 49 
1 15 
5 39 27 
22 4 
21 0 
68 10 
56 14 
74 70 3 
35 62 
18 16 
31 50 
17 19 2 
63 8 32 
60 57 
30 76 29 
69 23 
41 52 33 
38 26 
65 73 72 
61 7 
51 13 
66 12 
59 44 64 
55 24 37 
47 46 75 
53 20 
